% demand
num_movements = 18;
loading_factor = [1400, 1150, 1450, 1400, 1600, 1050, 1050, 1450, 850, 1750, 1950, 1550, 1150, 1950, 1100, 850, 1100, 950];
pickup_time = [0, 0, 0, 0, 0, 2, 2, 2, 3, 5, 7, 7, 8, 8, 8, 8, 10, 12];
delivery_time = [1, 7, 7, 1, 2, 8, 4, 4, 7, 8, 12, 8, 10, 13, 12, 11, 13, 13];

% transporter definition
total_capacity = 7000;
num_decks = 3;
capacity = [3000, 1000, 3000];

% ways out of decks
num_ways_out = 1;
paths_out = array3d(decks, ways_out, decks, [
% ways out of deck d1
2, 3, 0, 

% ways out of deck d2
3, 0, 0, 

% ways out of deck d3
0, 0, 0,	

]);

